\* TSP *\
Minimize
OBJ: 184.219977201 x_0_1 + 143.178210633 x_0_10 + 40.4969134626 x_0_11
 + 166.688331925 x_0_12 + 170.064693573 x_0_13 + 196.77398202 x_0_14
 + 134.272111773 x_0_15 + 55.542776308 x_0_16 + 127.062976512 x_0_17
 + 114.738833879 x_0_18 + 65.7647321898 x_0_19 + 71.55417528 x_0_2
 + 94.6414285606 x_0_3 + 155.219199843 x_0_4 + 105.75916036 x_0_5
 + 148.060798323 x_0_6 + 161.993827043 x_0_7 + 161.111762451 x_0_8
 + 194.743420942 x_0_9 + 143.178210633 x_10_0 + 74.2765104188 x_10_1
 + 118.067777145 x_10_11 + 27.2946881279 x_10_12 + 88.1022133661 x_10_13
 + 53.8516480713 x_10_14 + 26.2488094968 x_10_15 + 87.6641317758 x_10_16
 + 135.517526542 x_10_17 + 49.6487663492 x_10_18 + 99.0201999594 x_10_19
 + 113.225438838 x_10_2 + 143.178210633 x_10_20 + 51.7397332811 x_10_3
 + 43.965895874 x_10_4 + 45 x_10_5 + 12.7279220614 x_10_6
 + 41.0121933088 x_10_7 + 90.7579197646 x_10_8 + 53.1507290637 x_10_9
 + 40.4969134626 x_11_0 + 172.455791437 x_11_1 + 118.067777145 x_11_10
 + 144.128414964 x_11_12 + 165.148418097 x_11_13 + 169.54055562 x_11_14
 + 103.619496235 x_11_15 + 40.3112887415 x_11_16 + 142.902064366 x_11_17
 + 103.07764064 x_11_18 + 26.2488094968 x_11_19 + 86.0232526704 x_11_2
 + 40.4969134626 x_11_20 + 77.9294552785 x_11_3 + 121.264174429 x_11_4
 + 90.0943949422 x_11_5 + 125.674181915 x_11_6 + 145.168867186 x_11_7
 + 158.496056733 x_11_8 + 166.087326428 x_11_9 + 166.688331925 x_12_0
 + 54.2033209315 x_12_1 + 27.2946881279 x_12_10 + 144.128414964 x_12_11
 + 75.953933407 x_12_13 + 37.2155881319 x_12_14 + 51.4781507049 x_12_15
 + 111.319360401 x_12_16 + 139.46325681 x_12_17 + 60.811183182 x_12_18
 + 126.015872016 x_12_19 + 128.035151423 x_12_2 + 166.688331925 x_12_20
 + 72.4982758416 x_12_3 + 60.9590026165 x_12_4 + 62.7694193059 x_12_5
 + 18.6815416923 x_12_6 + 25.079872408 x_12_7 + 82.0243866176 x_12_8
 + 41.1096095822 x_12_9 + 170.064693573 x_13_0 + 31.7647603485 x_13_1
 + 88.1022133661 x_13_10 + 165.148418097 x_13_11 + 75.953933407 x_13_12
 + 107.228727494 x_13_14 + 112.680965562 x_13_15 + 124.919974384 x_13_16
 + 84.5044377533 x_13_17 + 63.6317530797 x_13_18 + 158.028478446 x_13_19
 + 105.80170131 x_13_2 + 170.064693573 x_13_20 + 90.0499861188 x_13_3
 + 131.700417615 x_13_4 + 78.7718223732 x_13_5 + 76.1577310586 x_13_6
 + 50.9901951359 x_13_7 + 12.2065556157 x_13_8 + 114.004385881 x_13_9
 + 196.77398202 x_14_0 + 79.4040301244 x_14_1 + 53.8516480713 x_14_10
 + 169.54055562 x_14_11 + 37.2155881319 x_14_12 + 107.228727494 x_14_13
 + 66.9103878333 x_14_15 + 141.354165131 x_14_16 + 176.366096515 x_14_17
 + 97.3087868592 x_14_18 + 148.07092895 x_14_19 + 164.146276229 x_14_2
 + 196.77398202 x_14_20 + 105.209315177 x_14_3 + 60.6382717432 x_14_4
 + 97.0824391947 x_14_5 + 52.3259018078 x_14_6 + 59.4810894319 x_14_7
 + 115.260574352 x_14_8 + 9.21954445729 x_14_9 + 134.272111773 x_15_0
 + 100.498756211 x_15_1 + 26.2488094968 x_15_10 + 103.619496235 x_15_11
 + 51.4781507049 x_15_12 + 112.680965562 x_15_13 + 66.9103878333 x_15_14
 + 80.6597793203 x_15_16 + 150.119952038 x_15_17 + 64.1248781675 x_15_18
 + 81.2526922631 x_15_19 + 118.308917669 x_15_2 + 134.272111773 x_15_20
 + 54.4242592968 x_15_3 + 25.9615099715 x_15_4 + 53.4602656185 x_15_5
 + 38.9486841883 x_15_6 + 67.2086303982 x_15_7 + 114.061386981 x_15_8
 + 62.6418390535 x_15_9 + 55.542776308 x_16_0 + 133.633828053 x_16_1
 + 87.6641317758 x_16_10 + 40.3112887415 x_16_11 + 111.319360401 x_16_12
 + 124.919974384 x_16_13 + 141.354165131 x_16_14 + 80.6597793203 x_16_15
 + 108.784190028 x_16_17 + 63.6396103068 x_16_18 + 41.1825205639 x_16_19
 + 55.542776308 x_16_2 + 55.542776308 x_16_20 + 40.1995024845 x_16_3
 + 103.7111373 x_16_4 + 52.038447325 x_16_5 + 92.6552750792 x_16_6
 + 108.374351209 x_16_7 + 118.186293622 x_16_8 + 139.606590102 x_16_9
 + 127.062976512 x_17_0 + 114.560027933 x_17_1 + 135.517526542 x_17_10
 + 142.902064366 x_17_11 + 139.46325681 x_17_12 + 84.5044377533 x_17_13
 + 176.366096515 x_17_14 + 150.119952038 x_17_15 + 108.784190028 x_17_16
 + 86.5794432877 x_17_18 + 149.966662962 x_17_19 + 57.2800139665 x_17_2
 + 127.062976512 x_17_20 + 99.8498873309 x_17_3 + 175.482192829 x_17_4
 + 97.0051545022 x_17_5 + 128.844867961 x_17_6 + 117.64777941 x_17_7
 + 72.3463889907 x_17_8 + 180.499307478 x_17_9 + 114.738833879 x_18_0
 + 70.1141925718 x_18_1 + 49.6487663492 x_18_10 + 103.07764064 x_18_11
 + 60.811183182 x_18_12 + 63.6317530797 x_18_13 + 97.3087868592 x_18_14
 + 64.1248781675 x_18_15 + 63.6396103068 x_18_16 + 86.5794432877 x_18_17
 + 94.4139820154 x_18_19 + 67.2681202354 x_18_2 + 114.738833879 x_18_20
 + 26.4196896272 x_18_3 + 89.0505474436 x_18_4 + 15.5563491861 x_18_5
 + 45.4862616622 x_18_6 + 48.4664832642 x_18_7 + 59.5482997238 x_18_8
 + 99.2975326985 x_18_9 + 65.7647321898 x_19_0 + 160.654909667 x_19_1
 + 99.0201999594 x_19_10 + 26.2488094968 x_19_11 + 126.015872016 x_19_12
 + 158.028478446 x_19_13 + 148.07092895 x_19_14 + 81.2526922631 x_19_15
 + 41.1825205639 x_19_16 + 149.966662962 x_19_17 + 94.4139820154 x_19_18
 + 95.859271852 x_19_2 + 65.7647321898 x_19_20 + 68 x_19_3
 + 96.6022774059 x_19_4 + 79.6241169496 x_19_5 + 108.226614102 x_19_6
 + 130.816665605 x_19_7 + 153.101273672 x_19_8 + 143.840189099 x_19_9
 + 184.219977201 x_1_0 + 74.2765104188 x_1_10 + 172.455791437 x_1_11
 + 54.2033209315 x_1_12 + 31.7647603485 x_1_13 + 79.4040301244 x_1_14
 + 100.498756211 x_1_15 + 133.633828053 x_1_16 + 114.560027933 x_1_17
 + 70.1141925718 x_1_18 + 160.654909667 x_1_19 + 126.810882814 x_1_2
 + 184.219977201 x_1_20 + 94.5409963984 x_1_3 + 114.621114983 x_1_4
 + 82.3771813065 x_1_5 + 61.554853586 x_1_6 + 33.3016516107 x_1_7
 + 43.0116263352 x_1_8 + 87.1320836432 x_1_9 + 184.219977201 x_20_1
 + 143.178210633 x_20_10 + 40.4969134626 x_20_11 + 166.688331925 x_20_12
 + 170.064693573 x_20_13 + 196.77398202 x_20_14 + 134.272111773 x_20_15
 + 55.542776308 x_20_16 + 127.062976512 x_20_17 + 114.738833879 x_20_18
 + 65.7647321898 x_20_19 + 71.55417528 x_20_2 + 94.6414285606 x_20_3
 + 155.219199843 x_20_4 + 105.75916036 x_20_5 + 148.060798323 x_20_6
 + 161.993827043 x_20_7 + 161.111762451 x_20_8 + 194.743420942 x_20_9
 + 71.55417528 x_2_0 + 126.810882814 x_2_1 + 113.225438838 x_2_10
 + 86.0232526704 x_2_11 + 128.035151423 x_2_12 + 105.80170131 x_2_13
 + 164.146276229 x_2_14 + 118.308917669 x_2_15 + 55.542776308 x_2_16
 + 57.2800139665 x_2_17 + 67.2681202354 x_2_18 + 95.859271852 x_2_19
 + 71.55417528 x_2_20 + 63.9765582069 x_2_3 + 144.100659263 x_2_4
 + 68.2422156733 x_2_5 + 111.865991257 x_2_6 + 113.991227733 x_2_7
 + 95.1892851113 x_2_8 + 165.423698423 x_2_9 + 94.6414285606 x_3_0
 + 94.5409963984 x_3_1 + 51.7397332811 x_3_10 + 77.9294552785 x_3_11
 + 72.4982758416 x_3_12 + 90.0499861188 x_3_13 + 105.209315177 x_3_14
 + 54.4242592968 x_3_15 + 40.1995024845 x_3_16 + 99.8498873309 x_3_17
 + 26.4196896272 x_3_18 + 68 x_3_19 + 63.9765582069 x_3_2
 + 94.6414285606 x_3_20 + 80.3243425121 x_3_4 + 12.1655250606 x_3_5
 + 54.1202365109 x_3_6 + 68.1835757349 x_3_7 + 85.6037382361 x_3_8
 + 104.89041901 x_3_9 + 155.219199843 x_4_0 + 114.621114983 x_4_1
 + 43.965895874 x_4_10 + 121.264174429 x_4_11 + 60.9590026165 x_4_12
 + 131.700417615 x_4_13 + 60.6382717432 x_4_14 + 25.9615099715 x_4_15
 + 103.7111373 x_4_16 + 175.482192829 x_4_17 + 89.0505474436 x_4_18
 + 96.6022774059 x_4_19 + 144.100659263 x_4_2 + 155.219199843 x_4_20
 + 80.3243425121 x_4_3 + 79.2464510246 x_4_5 + 55.542776308 x_4_6
 + 82.4924238946 x_4_7 + 134.714512952 x_4_8 + 53.4602656185 x_4_9
 + 105.75916036 x_5_0 + 82.3771813065 x_5_1 + 45 x_5_10 + 90.0943949422 x_5_11
 + 62.7694193059 x_5_12 + 78.7718223732 x_5_13 + 97.0824391947 x_5_14
 + 53.4602656185 x_5_15 + 52.038447325 x_5_16 + 97.0051545022 x_5_17
 + 15.5563491861 x_5_18 + 79.6241169496 x_5_19 + 68.2422156733 x_5_2
 + 105.75916036 x_5_20 + 12.1655250606 x_5_3 + 79.2464510246 x_5_4 + 45 x_5_6
 + 56.4358042381 x_5_7 + 75.0732975165 x_5_8 + 97.6217188949 x_5_9
 + 148.060798323 x_6_0 + 61.554853586 x_6_1 + 12.7279220614 x_6_10
 + 125.674181915 x_6_11 + 18.6815416923 x_6_12 + 76.1577310586 x_6_13
 + 52.3259018078 x_6_14 + 38.9486841883 x_6_15 + 92.6552750792 x_6_16
 + 128.844867961 x_6_17 + 45.4862616622 x_6_18 + 108.226614102 x_6_19
 + 111.865991257 x_6_2 + 148.060798323 x_6_20 + 54.1202365109 x_6_3
 + 55.542776308 x_6_4 + 45 x_6_5 + 28.2842712475 x_6_7 + 79.5550124128 x_6_8
 + 53.8237865632 x_6_9 + 161.993827043 x_7_0 + 33.3016516107 x_7_1
 + 41.0121933088 x_7_10 + 145.168867186 x_7_11 + 25.079872408 x_7_12
 + 50.9901951359 x_7_13 + 59.4810894319 x_7_14 + 67.2086303982 x_7_15
 + 108.374351209 x_7_16 + 117.64777941 x_7_17 + 48.4664832642 x_7_18
 + 130.816665605 x_7_19 + 113.991227733 x_7_2 + 161.993827043 x_7_20
 + 68.1835757349 x_7_3 + 82.4924238946 x_7_4 + 56.4358042381 x_7_5
 + 28.2842712475 x_7_6 + 57 x_7_8 + 64.9384323802 x_7_9 + 161.111762451 x_8_0
 + 43.0116263352 x_8_1 + 90.7579197646 x_8_10 + 158.496056733 x_8_11
 + 82.0243866176 x_8_12 + 12.2065556157 x_8_13 + 115.260574352 x_8_14
 + 114.061386981 x_8_15 + 118.186293622 x_8_16 + 72.3463889907 x_8_17
 + 59.5482997238 x_8_18 + 153.101273672 x_8_19 + 95.1892851113 x_8_2
 + 161.111762451 x_8_20 + 85.6037382361 x_8_3 + 134.714512952 x_8_4
 + 75.0732975165 x_8_5 + 79.5550124128 x_8_6 + 57 x_8_7 + 121.498971189 x_8_9
 + 194.743420942 x_9_0 + 87.1320836432 x_9_1 + 53.1507290637 x_9_10
 + 166.087326428 x_9_11 + 41.1096095822 x_9_12 + 114.004385881 x_9_13
 + 9.21954445729 x_9_14 + 62.6418390535 x_9_15 + 139.606590102 x_9_16
 + 180.499307478 x_9_17 + 99.2975326985 x_9_18 + 143.840189099 x_9_19
 + 165.423698423 x_9_2 + 194.743420942 x_9_20 + 104.89041901 x_9_3
 + 53.4602656185 x_9_4 + 97.6217188949 x_9_5 + 53.8237865632 x_9_6
 + 64.9384323802 x_9_7 + 121.498971189 x_9_8
Subject To
_C1: x_0_0 + x_0_1 + x_0_10 + x_0_11 + x_0_12 + x_0_13 + x_0_14 + x_0_15
 + x_0_16 + x_0_17 + x_0_18 + x_0_19 + x_0_2 + x_0_20 + x_0_3 + x_0_4 + x_0_5
 + x_0_6 + x_0_7 + x_0_8 + x_0_9 = 1
_C10: x_9_0 + x_9_1 + x_9_10 + x_9_11 + x_9_12 + x_9_13 + x_9_14 + x_9_15
 + x_9_16 + x_9_17 + x_9_18 + x_9_19 + x_9_2 + x_9_20 + x_9_3 + x_9_4 + x_9_5
 + x_9_6 + x_9_7 + x_9_8 + x_9_9 = 1
_C100: - 19 + 2 + 21 x_1_18 <= 20
_C101: 2 - 20 + 21 x_1_19 <= 20
_C102: 2 - 21 + 21 x_1_20 <= 20
_C103: - 1 + 3 + 21 x_2_0 <= 20
_C104: - 2 + 3 + 21 x_2_1 <= 20
_C105: 3 - 4 + 21 x_2_3 <= 20
_C106: 3 - 5 + 21 x_2_4 <= 20
_C107: 3 - 6 + 21 x_2_5 <= 20
_C108: 3 - 7 + 21 x_2_6 <= 20
_C109: 3 - 8 + 21 x_2_7 <= 20
_C11: x_10_0 + x_10_1 + x_10_10 + x_10_11 + x_10_12 + x_10_13 + x_10_14
 + x_10_15 + x_10_16 + x_10_17 + x_10_18 + x_10_19 + x_10_2 + x_10_20 + x_10_3
 + x_10_4 + x_10_5 + x_10_6 + x_10_7 + x_10_8 + x_10_9 = 1
_C110: 3 - 9 + 21 x_2_8 <= 20
_C111: - 10 + 3 + 21 x_2_9 <= 20
_C112: - 11 + 3 + 21 x_2_10 <= 20
_C113: - 12 + 3 + 21 x_2_11 <= 20
_C114: - 13 + 3 + 21 x_2_12 <= 20
_C115: - 14 + 3 + 21 x_2_13 <= 20
_C116: - 15 + 3 + 21 x_2_14 <= 20
_C117: - 16 + 3 + 21 x_2_15 <= 20
_C118: - 17 + 3 + 21 x_2_16 <= 20
_C119: - 18 + 3 + 21 x_2_17 <= 20
_C12: x_11_0 + x_11_1 + x_11_10 + x_11_11 + x_11_12 + x_11_13 + x_11_14
 + x_11_15 + x_11_16 + x_11_17 + x_11_18 + x_11_19 + x_11_2 + x_11_20 + x_11_3
 + x_11_4 + x_11_5 + x_11_6 + x_11_7 + x_11_8 + x_11_9 = 1
_C120: - 19 + 3 + 21 x_2_18 <= 20
_C121: - 20 + 3 + 21 x_2_19 <= 20
_C122: - 21 + 3 + 21 x_2_20 <= 20
_C123: - 1 + 4 + 21 x_3_0 <= 20
_C124: - 2 + 4 + 21 x_3_1 <= 20
_C125: - 3 + 4 + 21 x_3_2 <= 20
_C126: 4 - 5 + 21 x_3_4 <= 20
_C127: 4 - 6 + 21 x_3_5 <= 20
_C128: 4 - 7 + 21 x_3_6 <= 20
_C129: 4 - 8 + 21 x_3_7 <= 20
_C13: x_12_0 + x_12_1 + x_12_10 + x_12_11 + x_12_12 + x_12_13 + x_12_14
 + x_12_15 + x_12_16 + x_12_17 + x_12_18 + x_12_19 + x_12_2 + x_12_20 + x_12_3
 + x_12_4 + x_12_5 + x_12_6 + x_12_7 + x_12_8 + x_12_9 = 1
_C130: 4 - 9 + 21 x_3_8 <= 20
_C131: - 10 + 4 + 21 x_3_9 <= 20
_C132: - 11 + 4 + 21 x_3_10 <= 20
_C133: - 12 + 4 + 21 x_3_11 <= 20
_C134: - 13 + 4 + 21 x_3_12 <= 20
_C135: - 14 + 4 + 21 x_3_13 <= 20
_C136: - 15 + 4 + 21 x_3_14 <= 20
_C137: - 16 + 4 + 21 x_3_15 <= 20
_C138: - 17 + 4 + 21 x_3_16 <= 20
_C139: - 18 + 4 + 21 x_3_17 <= 20
_C14: x_13_0 + x_13_1 + x_13_10 + x_13_11 + x_13_12 + x_13_13 + x_13_14
 + x_13_15 + x_13_16 + x_13_17 + x_13_18 + x_13_19 + x_13_2 + x_13_20 + x_13_3
 + x_13_4 + x_13_5 + x_13_6 + x_13_7 + x_13_8 + x_13_9 = 1
_C140: - 19 + 4 + 21 x_3_18 <= 20
_C141: - 20 + 4 + 21 x_3_19 <= 20
_C142: - 21 + 4 + 21 x_3_20 <= 20
_C143: - 1 + 5 + 21 x_4_0 <= 20
_C144: - 2 + 5 + 21 x_4_1 <= 20
_C145: - 3 + 5 + 21 x_4_2 <= 20
_C146: - 4 + 5 + 21 x_4_3 <= 20
_C147: 5 - 6 + 21 x_4_5 <= 20
_C148: 5 - 7 + 21 x_4_6 <= 20
_C149: 5 - 8 + 21 x_4_7 <= 20
_C15: x_14_0 + x_14_1 + x_14_10 + x_14_11 + x_14_12 + x_14_13 + x_14_14
 + x_14_15 + x_14_16 + x_14_17 + x_14_18 + x_14_19 + x_14_2 + x_14_20 + x_14_3
 + x_14_4 + x_14_5 + x_14_6 + x_14_7 + x_14_8 + x_14_9 = 1
_C150: 5 - 9 + 21 x_4_8 <= 20
_C151: - 10 + 5 + 21 x_4_9 <= 20
_C152: - 11 + 5 + 21 x_4_10 <= 20
_C153: - 12 + 5 + 21 x_4_11 <= 20
_C154: - 13 + 5 + 21 x_4_12 <= 20
_C155: - 14 + 5 + 21 x_4_13 <= 20
_C156: - 15 + 5 + 21 x_4_14 <= 20
_C157: - 16 + 5 + 21 x_4_15 <= 20
_C158: - 17 + 5 + 21 x_4_16 <= 20
_C159: - 18 + 5 + 21 x_4_17 <= 20
_C16: x_15_0 + x_15_1 + x_15_10 + x_15_11 + x_15_12 + x_15_13 + x_15_14
 + x_15_15 + x_15_16 + x_15_17 + x_15_18 + x_15_19 + x_15_2 + x_15_20 + x_15_3
 + x_15_4 + x_15_5 + x_15_6 + x_15_7 + x_15_8 + x_15_9 = 1
_C160: - 19 + 5 + 21 x_4_18 <= 20
_C161: - 20 + 5 + 21 x_4_19 <= 20
_C162: - 21 + 5 + 21 x_4_20 <= 20
_C163: - 1 + 6 + 21 x_5_0 <= 20
_C164: - 2 + 6 + 21 x_5_1 <= 20
_C165: - 3 + 6 + 21 x_5_2 <= 20
_C166: - 4 + 6 + 21 x_5_3 <= 20
_C167: - 5 + 6 + 21 x_5_4 <= 20
_C168: 6 - 7 + 21 x_5_6 <= 20
_C169: 6 - 8 + 21 x_5_7 <= 20
_C17: x_16_0 + x_16_1 + x_16_10 + x_16_11 + x_16_12 + x_16_13 + x_16_14
 + x_16_15 + x_16_16 + x_16_17 + x_16_18 + x_16_19 + x_16_2 + x_16_20 + x_16_3
 + x_16_4 + x_16_5 + x_16_6 + x_16_7 + x_16_8 + x_16_9 = 1
_C170: 6 - 9 + 21 x_5_8 <= 20
_C171: - 10 + 6 + 21 x_5_9 <= 20
_C172: - 11 + 6 + 21 x_5_10 <= 20
_C173: - 12 + 6 + 21 x_5_11 <= 20
_C174: - 13 + 6 + 21 x_5_12 <= 20
_C175: - 14 + 6 + 21 x_5_13 <= 20
_C176: - 15 + 6 + 21 x_5_14 <= 20
_C177: - 16 + 6 + 21 x_5_15 <= 20
_C178: - 17 + 6 + 21 x_5_16 <= 20
_C179: - 18 + 6 + 21 x_5_17 <= 20
_C18: x_17_0 + x_17_1 + x_17_10 + x_17_11 + x_17_12 + x_17_13 + x_17_14
 + x_17_15 + x_17_16 + x_17_17 + x_17_18 + x_17_19 + x_17_2 + x_17_20 + x_17_3
 + x_17_4 + x_17_5 + x_17_6 + x_17_7 + x_17_8 + x_17_9 = 1
_C180: - 19 + 6 + 21 x_5_18 <= 20
_C181: - 20 + 6 + 21 x_5_19 <= 20
_C182: - 21 + 6 + 21 x_5_20 <= 20
_C183: - 1 + 7 + 21 x_6_0 <= 20
_C184: - 2 + 7 + 21 x_6_1 <= 20
_C185: - 3 + 7 + 21 x_6_2 <= 20
_C186: - 4 + 7 + 21 x_6_3 <= 20
_C187: - 5 + 7 + 21 x_6_4 <= 20
_C188: - 6 + 7 + 21 x_6_5 <= 20
_C189: 7 - 8 + 21 x_6_7 <= 20
_C19: x_18_0 + x_18_1 + x_18_10 + x_18_11 + x_18_12 + x_18_13 + x_18_14
 + x_18_15 + x_18_16 + x_18_17 + x_18_18 + x_18_19 + x_18_2 + x_18_20 + x_18_3
 + x_18_4 + x_18_5 + x_18_6 + x_18_7 + x_18_8 + x_18_9 = 1
_C190: 7 - 9 + 21 x_6_8 <= 20
_C191: - 10 + 7 + 21 x_6_9 <= 20
_C192: - 11 + 7 + 21 x_6_10 <= 20
_C193: - 12 + 7 + 21 x_6_11 <= 20
_C194: - 13 + 7 + 21 x_6_12 <= 20
_C195: - 14 + 7 + 21 x_6_13 <= 20
_C196: - 15 + 7 + 21 x_6_14 <= 20
_C197: - 16 + 7 + 21 x_6_15 <= 20
_C198: - 17 + 7 + 21 x_6_16 <= 20
_C199: - 18 + 7 + 21 x_6_17 <= 20
_C2: x_1_0 + x_1_1 + x_1_10 + x_1_11 + x_1_12 + x_1_13 + x_1_14 + x_1_15
 + x_1_16 + x_1_17 + x_1_18 + x_1_19 + x_1_2 + x_1_20 + x_1_3 + x_1_4 + x_1_5
 + x_1_6 + x_1_7 + x_1_8 + x_1_9 = 1
_C20: x_19_0 + x_19_1 + x_19_10 + x_19_11 + x_19_12 + x_19_13 + x_19_14
 + x_19_15 + x_19_16 + x_19_17 + x_19_18 + x_19_19 + x_19_2 + x_19_20 + x_19_3
 + x_19_4 + x_19_5 + x_19_6 + x_19_7 + x_19_8 + x_19_9 = 1
_C200: - 19 + 7 + 21 x_6_18 <= 20
_C201: - 20 + 7 + 21 x_6_19 <= 20
_C202: - 21 + 7 + 21 x_6_20 <= 20
_C203: - 1 + 8 + 21 x_7_0 <= 20
_C204: - 2 + 8 + 21 x_7_1 <= 20
_C205: - 3 + 8 + 21 x_7_2 <= 20
_C206: - 4 + 8 + 21 x_7_3 <= 20
_C207: - 5 + 8 + 21 x_7_4 <= 20
_C208: - 6 + 8 + 21 x_7_5 <= 20
_C209: - 7 + 8 + 21 x_7_6 <= 20
_C21: x_20_0 + x_20_1 + x_20_10 + x_20_11 + x_20_12 + x_20_13 + x_20_14
 + x_20_15 + x_20_16 + x_20_17 + x_20_18 + x_20_19 + x_20_2 + x_20_20 + x_20_3
 + x_20_4 + x_20_5 + x_20_6 + x_20_7 + x_20_8 + x_20_9 = 1
_C210: 8 - 9 + 21 x_7_8 <= 20
_C211: - 10 + 8 + 21 x_7_9 <= 20
_C212: - 11 + 8 + 21 x_7_10 <= 20
_C213: - 12 + 8 + 21 x_7_11 <= 20
_C214: - 13 + 8 + 21 x_7_12 <= 20
_C215: - 14 + 8 + 21 x_7_13 <= 20
_C216: - 15 + 8 + 21 x_7_14 <= 20
_C217: - 16 + 8 + 21 x_7_15 <= 20
_C218: - 17 + 8 + 21 x_7_16 <= 20
_C219: - 18 + 8 + 21 x_7_17 <= 20
_C22: x_0_1 + x_10_1 + x_11_1 + x_12_1 + x_13_1 + x_14_1 + x_15_1 + x_16_1
 + x_17_1 + x_18_1 + x_19_1 + x_1_1 + x_20_1 + x_2_1 + x_3_1 + x_4_1 + x_5_1
 + x_6_1 + x_7_1 + x_8_1 + x_9_1 = 1
_C220: - 19 + 8 + 21 x_7_18 <= 20
_C221: - 20 + 8 + 21 x_7_19 <= 20
_C222: - 21 + 8 + 21 x_7_20 <= 20
_C223: - 1 + 9 + 21 x_8_0 <= 20
_C224: - 2 + 9 + 21 x_8_1 <= 20
_C225: - 3 + 9 + 21 x_8_2 <= 20
_C226: - 4 + 9 + 21 x_8_3 <= 20
_C227: - 5 + 9 + 21 x_8_4 <= 20
_C228: - 6 + 9 + 21 x_8_5 <= 20
_C229: - 7 + 9 + 21 x_8_6 <= 20
_C23: x_0_2 + x_10_2 + x_11_2 + x_12_2 + x_13_2 + x_14_2 + x_15_2 + x_16_2
 + x_17_2 + x_18_2 + x_19_2 + x_1_2 + x_20_2 + x_2_2 + x_3_2 + x_4_2 + x_5_2
 + x_6_2 + x_7_2 + x_8_2 + x_9_2 = 1
_C230: - 8 + 9 + 21 x_8_7 <= 20
_C231: - 10 + 9 + 21 x_8_9 <= 20
_C232: - 11 + 9 + 21 x_8_10 <= 20
_C233: - 12 + 9 + 21 x_8_11 <= 20
_C234: - 13 + 9 + 21 x_8_12 <= 20
_C235: - 14 + 9 + 21 x_8_13 <= 20
_C236: - 15 + 9 + 21 x_8_14 <= 20
_C237: - 16 + 9 + 21 x_8_15 <= 20
_C238: - 17 + 9 + 21 x_8_16 <= 20
_C239: - 18 + 9 + 21 x_8_17 <= 20
_C24: x_0_3 + x_10_3 + x_11_3 + x_12_3 + x_13_3 + x_14_3 + x_15_3 + x_16_3
 + x_17_3 + x_18_3 + x_19_3 + x_1_3 + x_20_3 + x_2_3 + x_3_3 + x_4_3 + x_5_3
 + x_6_3 + x_7_3 + x_8_3 + x_9_3 = 1
_C240: - 19 + 9 + 21 x_8_18 <= 20
_C241: - 20 + 9 + 21 x_8_19 <= 20
_C242: - 21 + 9 + 21 x_8_20 <= 20
_C243: - 1 + 10 + 21 x_9_0 <= 20
_C244: 10 - 2 + 21 x_9_1 <= 20
_C245: 10 - 3 + 21 x_9_2 <= 20
_C246: 10 - 4 + 21 x_9_3 <= 20
_C247: 10 - 5 + 21 x_9_4 <= 20
_C248: 10 - 6 + 21 x_9_5 <= 20
_C249: 10 - 7 + 21 x_9_6 <= 20
_C25: x_0_4 + x_10_4 + x_11_4 + x_12_4 + x_13_4 + x_14_4 + x_15_4 + x_16_4
 + x_17_4 + x_18_4 + x_19_4 + x_1_4 + x_20_4 + x_2_4 + x_3_4 + x_4_4 + x_5_4
 + x_6_4 + x_7_4 + x_8_4 + x_9_4 = 1
_C250: 10 - 8 + 21 x_9_7 <= 20
_C251: 10 - 9 + 21 x_9_8 <= 20
_C252: 10 - 11 + 21 x_9_10 <= 20
_C253: 10 - 12 + 21 x_9_11 <= 20
_C254: 10 - 13 + 21 x_9_12 <= 20
_C255: 10 - 14 + 21 x_9_13 <= 20
_C256: 10 - 15 + 21 x_9_14 <= 20
_C257: 10 - 16 + 21 x_9_15 <= 20
_C258: 10 - 17 + 21 x_9_16 <= 20
_C259: 10 - 18 + 21 x_9_17 <= 20
_C26: x_0_5 + x_10_5 + x_11_5 + x_12_5 + x_13_5 + x_14_5 + x_15_5 + x_16_5
 + x_17_5 + x_18_5 + x_19_5 + x_1_5 + x_20_5 + x_2_5 + x_3_5 + x_4_5 + x_5_5
 + x_6_5 + x_7_5 + x_8_5 + x_9_5 = 1
_C260: 10 - 19 + 21 x_9_18 <= 20
_C261: 10 - 20 + 21 x_9_19 <= 20
_C262: 10 - 21 + 21 x_9_20 <= 20
_C263: - 1 + 11 + 21 x_10_0 <= 20
_C264: 11 - 2 + 21 x_10_1 <= 20
_C265: 11 - 3 + 21 x_10_2 <= 20
_C266: 11 - 4 + 21 x_10_3 <= 20
_C267: 11 - 5 + 21 x_10_4 <= 20
_C268: 11 - 6 + 21 x_10_5 <= 20
_C269: 11 - 7 + 21 x_10_6 <= 20
_C27: x_0_6 + x_10_6 + x_11_6 + x_12_6 + x_13_6 + x_14_6 + x_15_6 + x_16_6
 + x_17_6 + x_18_6 + x_19_6 + x_1_6 + x_20_6 + x_2_6 + x_3_6 + x_4_6 + x_5_6
 + x_6_6 + x_7_6 + x_8_6 + x_9_6 = 1
_C270: 11 - 8 + 21 x_10_7 <= 20
_C271: 11 - 9 + 21 x_10_8 <= 20
_C272: - 10 + 11 + 21 x_10_9 <= 20
_C273: 11 - 12 + 21 x_10_11 <= 20
_C274: 11 - 13 + 21 x_10_12 <= 20
_C275: 11 - 14 + 21 x_10_13 <= 20
_C276: 11 - 15 + 21 x_10_14 <= 20
_C277: 11 - 16 + 21 x_10_15 <= 20
_C278: 11 - 17 + 21 x_10_16 <= 20
_C279: 11 - 18 + 21 x_10_17 <= 20
_C28: x_0_7 + x_10_7 + x_11_7 + x_12_7 + x_13_7 + x_14_7 + x_15_7 + x_16_7
 + x_17_7 + x_18_7 + x_19_7 + x_1_7 + x_20_7 + x_2_7 + x_3_7 + x_4_7 + x_5_7
 + x_6_7 + x_7_7 + x_8_7 + x_9_7 = 1
_C280: 11 - 19 + 21 x_10_18 <= 20
_C281: 11 - 20 + 21 x_10_19 <= 20
_C282: 11 - 21 + 21 x_10_20 <= 20
_C283: - 1 + 12 + 21 x_11_0 <= 20
_C284: 12 - 2 + 21 x_11_1 <= 20
_C285: 12 - 3 + 21 x_11_2 <= 20
_C286: 12 - 4 + 21 x_11_3 <= 20
_C287: 12 - 5 + 21 x_11_4 <= 20
_C288: 12 - 6 + 21 x_11_5 <= 20
_C289: 12 - 7 + 21 x_11_6 <= 20
_C29: x_0_8 + x_10_8 + x_11_8 + x_12_8 + x_13_8 + x_14_8 + x_15_8 + x_16_8
 + x_17_8 + x_18_8 + x_19_8 + x_1_8 + x_20_8 + x_2_8 + x_3_8 + x_4_8 + x_5_8
 + x_6_8 + x_7_8 + x_8_8 + x_9_8 = 1
_C290: 12 - 8 + 21 x_11_7 <= 20
_C291: 12 - 9 + 21 x_11_8 <= 20
_C292: - 10 + 12 + 21 x_11_9 <= 20
_C293: - 11 + 12 + 21 x_11_10 <= 20
_C294: 12 - 13 + 21 x_11_12 <= 20
_C295: 12 - 14 + 21 x_11_13 <= 20
_C296: 12 - 15 + 21 x_11_14 <= 20
_C297: 12 - 16 + 21 x_11_15 <= 20
_C298: 12 - 17 + 21 x_11_16 <= 20
_C299: 12 - 18 + 21 x_11_17 <= 20
_C3: x_2_0 + x_2_1 + x_2_10 + x_2_11 + x_2_12 + x_2_13 + x_2_14 + x_2_15
 + x_2_16 + x_2_17 + x_2_18 + x_2_19 + x_2_2 + x_2_20 + x_2_3 + x_2_4 + x_2_5
 + x_2_6 + x_2_7 + x_2_8 + x_2_9 = 1
_C30: x_0_9 + x_10_9 + x_11_9 + x_12_9 + x_13_9 + x_14_9 + x_15_9 + x_16_9
 + x_17_9 + x_18_9 + x_19_9 + x_1_9 + x_20_9 + x_2_9 + x_3_9 + x_4_9 + x_5_9
 + x_6_9 + x_7_9 + x_8_9 + x_9_9 = 1
_C300: 12 - 19 + 21 x_11_18 <= 20
_C301: 12 - 20 + 21 x_11_19 <= 20
_C302: 12 - 21 + 21 x_11_20 <= 20
_C303: - 1 + 13 + 21 x_12_0 <= 20
_C304: 13 - 2 + 21 x_12_1 <= 20
_C305: 13 - 3 + 21 x_12_2 <= 20
_C306: 13 - 4 + 21 x_12_3 <= 20
_C307: 13 - 5 + 21 x_12_4 <= 20
_C308: 13 - 6 + 21 x_12_5 <= 20
_C309: 13 - 7 + 21 x_12_6 <= 20
_C31: x_0_10 + x_10_10 + x_11_10 + x_12_10 + x_13_10 + x_14_10 + x_15_10
 + x_16_10 + x_17_10 + x_18_10 + x_19_10 + x_1_10 + x_20_10 + x_2_10 + x_3_10
 + x_4_10 + x_5_10 + x_6_10 + x_7_10 + x_8_10 + x_9_10 = 1
_C310: 13 - 8 + 21 x_12_7 <= 20
_C311: 13 - 9 + 21 x_12_8 <= 20
_C312: - 10 + 13 + 21 x_12_9 <= 20
_C313: - 11 + 13 + 21 x_12_10 <= 20
_C314: - 12 + 13 + 21 x_12_11 <= 20
_C315: 13 - 14 + 21 x_12_13 <= 20
_C316: 13 - 15 + 21 x_12_14 <= 20
_C317: 13 - 16 + 21 x_12_15 <= 20
_C318: 13 - 17 + 21 x_12_16 <= 20
_C319: 13 - 18 + 21 x_12_17 <= 20
_C32: x_0_11 + x_10_11 + x_11_11 + x_12_11 + x_13_11 + x_14_11 + x_15_11
 + x_16_11 + x_17_11 + x_18_11 + x_19_11 + x_1_11 + x_20_11 + x_2_11 + x_3_11
 + x_4_11 + x_5_11 + x_6_11 + x_7_11 + x_8_11 + x_9_11 = 1
_C320: 13 - 19 + 21 x_12_18 <= 20
_C321: 13 - 20 + 21 x_12_19 <= 20
_C322: 13 - 21 + 21 x_12_20 <= 20
_C323: - 1 + 14 + 21 x_13_0 <= 20
_C324: 14 - 2 + 21 x_13_1 <= 20
_C325: 14 - 3 + 21 x_13_2 <= 20
_C326: 14 - 4 + 21 x_13_3 <= 20
_C327: 14 - 5 + 21 x_13_4 <= 20
_C328: 14 - 6 + 21 x_13_5 <= 20
_C329: 14 - 7 + 21 x_13_6 <= 20
_C33: x_0_12 + x_10_12 + x_11_12 + x_12_12 + x_13_12 + x_14_12 + x_15_12
 + x_16_12 + x_17_12 + x_18_12 + x_19_12 + x_1_12 + x_20_12 + x_2_12 + x_3_12
 + x_4_12 + x_5_12 + x_6_12 + x_7_12 + x_8_12 + x_9_12 = 1
_C330: 14 - 8 + 21 x_13_7 <= 20
_C331: 14 - 9 + 21 x_13_8 <= 20
_C332: - 10 + 14 + 21 x_13_9 <= 20
_C333: - 11 + 14 + 21 x_13_10 <= 20
_C334: - 12 + 14 + 21 x_13_11 <= 20
_C335: - 13 + 14 + 21 x_13_12 <= 20
_C336: 14 - 15 + 21 x_13_14 <= 20
_C337: 14 - 16 + 21 x_13_15 <= 20
_C338: 14 - 17 + 21 x_13_16 <= 20
_C339: 14 - 18 + 21 x_13_17 <= 20
_C34: x_0_13 + x_10_13 + x_11_13 + x_12_13 + x_13_13 + x_14_13 + x_15_13
 + x_16_13 + x_17_13 + x_18_13 + x_19_13 + x_1_13 + x_20_13 + x_2_13 + x_3_13
 + x_4_13 + x_5_13 + x_6_13 + x_7_13 + x_8_13 + x_9_13 = 1
_C340: 14 - 19 + 21 x_13_18 <= 20
_C341: 14 - 20 + 21 x_13_19 <= 20
_C342: 14 - 21 + 21 x_13_20 <= 20
_C343: - 1 + 15 + 21 x_14_0 <= 20
_C344: 15 - 2 + 21 x_14_1 <= 20
_C345: 15 - 3 + 21 x_14_2 <= 20
_C346: 15 - 4 + 21 x_14_3 <= 20
_C347: 15 - 5 + 21 x_14_4 <= 20
_C348: 15 - 6 + 21 x_14_5 <= 20
_C349: 15 - 7 + 21 x_14_6 <= 20
_C35: x_0_14 + x_10_14 + x_11_14 + x_12_14 + x_13_14 + x_14_14 + x_15_14
 + x_16_14 + x_17_14 + x_18_14 + x_19_14 + x_1_14 + x_20_14 + x_2_14 + x_3_14
 + x_4_14 + x_5_14 + x_6_14 + x_7_14 + x_8_14 + x_9_14 = 1
_C350: 15 - 8 + 21 x_14_7 <= 20
_C351: 15 - 9 + 21 x_14_8 <= 20
_C352: - 10 + 15 + 21 x_14_9 <= 20
_C353: - 11 + 15 + 21 x_14_10 <= 20
_C354: - 12 + 15 + 21 x_14_11 <= 20
_C355: - 13 + 15 + 21 x_14_12 <= 20
_C356: - 14 + 15 + 21 x_14_13 <= 20
_C357: 15 - 16 + 21 x_14_15 <= 20
_C358: 15 - 17 + 21 x_14_16 <= 20
_C359: 15 - 18 + 21 x_14_17 <= 20
_C36: x_0_15 + x_10_15 + x_11_15 + x_12_15 + x_13_15 + x_14_15 + x_15_15
 + x_16_15 + x_17_15 + x_18_15 + x_19_15 + x_1_15 + x_20_15 + x_2_15 + x_3_15
 + x_4_15 + x_5_15 + x_6_15 + x_7_15 + x_8_15 + x_9_15 = 1
_C360: 15 - 19 + 21 x_14_18 <= 20
_C361: 15 - 20 + 21 x_14_19 <= 20
_C362: 15 - 21 + 21 x_14_20 <= 20
_C363: - 1 + 16 + 21 x_15_0 <= 20
_C364: 16 - 2 + 21 x_15_1 <= 20
_C365: 16 - 3 + 21 x_15_2 <= 20
_C366: 16 - 4 + 21 x_15_3 <= 20
_C367: 16 - 5 + 21 x_15_4 <= 20
_C368: 16 - 6 + 21 x_15_5 <= 20
_C369: 16 - 7 + 21 x_15_6 <= 20
_C37: x_0_16 + x_10_16 + x_11_16 + x_12_16 + x_13_16 + x_14_16 + x_15_16
 + x_16_16 + x_17_16 + x_18_16 + x_19_16 + x_1_16 + x_20_16 + x_2_16 + x_3_16
 + x_4_16 + x_5_16 + x_6_16 + x_7_16 + x_8_16 + x_9_16 = 1
_C370: 16 - 8 + 21 x_15_7 <= 20
_C371: 16 - 9 + 21 x_15_8 <= 20
_C372: - 10 + 16 + 21 x_15_9 <= 20
_C373: - 11 + 16 + 21 x_15_10 <= 20
_C374: - 12 + 16 + 21 x_15_11 <= 20
_C375: - 13 + 16 + 21 x_15_12 <= 20
_C376: - 14 + 16 + 21 x_15_13 <= 20
_C377: - 15 + 16 + 21 x_15_14 <= 20
_C378: 16 - 17 + 21 x_15_16 <= 20
_C379: 16 - 18 + 21 x_15_17 <= 20
_C38: x_0_17 + x_10_17 + x_11_17 + x_12_17 + x_13_17 + x_14_17 + x_15_17
 + x_16_17 + x_17_17 + x_18_17 + x_19_17 + x_1_17 + x_20_17 + x_2_17 + x_3_17
 + x_4_17 + x_5_17 + x_6_17 + x_7_17 + x_8_17 + x_9_17 = 1
_C380: 16 - 19 + 21 x_15_18 <= 20
_C381: 16 - 20 + 21 x_15_19 <= 20
_C382: 16 - 21 + 21 x_15_20 <= 20
_C383: - 1 + 17 + 21 x_16_0 <= 20
_C384: 17 - 2 + 21 x_16_1 <= 20
_C385: 17 - 3 + 21 x_16_2 <= 20
_C386: 17 - 4 + 21 x_16_3 <= 20
_C387: 17 - 5 + 21 x_16_4 <= 20
_C388: 17 - 6 + 21 x_16_5 <= 20
_C389: 17 - 7 + 21 x_16_6 <= 20
_C39: x_0_18 + x_10_18 + x_11_18 + x_12_18 + x_13_18 + x_14_18 + x_15_18
 + x_16_18 + x_17_18 + x_18_18 + x_19_18 + x_1_18 + x_20_18 + x_2_18 + x_3_18
 + x_4_18 + x_5_18 + x_6_18 + x_7_18 + x_8_18 + x_9_18 = 1
_C390: 17 - 8 + 21 x_16_7 <= 20
_C391: 17 - 9 + 21 x_16_8 <= 20
_C392: - 10 + 17 + 21 x_16_9 <= 20
_C393: - 11 + 17 + 21 x_16_10 <= 20
_C394: - 12 + 17 + 21 x_16_11 <= 20
_C395: - 13 + 17 + 21 x_16_12 <= 20
_C396: - 14 + 17 + 21 x_16_13 <= 20
_C397: - 15 + 17 + 21 x_16_14 <= 20
_C398: - 16 + 17 + 21 x_16_15 <= 20
_C399: 17 - 18 + 21 x_16_17 <= 20
_C4: x_3_0 + x_3_1 + x_3_10 + x_3_11 + x_3_12 + x_3_13 + x_3_14 + x_3_15
 + x_3_16 + x_3_17 + x_3_18 + x_3_19 + x_3_2 + x_3_20 + x_3_3 + x_3_4 + x_3_5
 + x_3_6 + x_3_7 + x_3_8 + x_3_9 = 1
_C40: x_0_19 + x_10_19 + x_11_19 + x_12_19 + x_13_19 + x_14_19 + x_15_19
 + x_16_19 + x_17_19 + x_18_19 + x_19_19 + x_1_19 + x_20_19 + x_2_19 + x_3_19
 + x_4_19 + x_5_19 + x_6_19 + x_7_19 + x_8_19 + x_9_19 = 1
_C400: 17 - 19 + 21 x_16_18 <= 20
_C401: 17 - 20 + 21 x_16_19 <= 20
_C402: 17 - 21 + 21 x_16_20 <= 20
_C403: - 1 + 18 + 21 x_17_0 <= 20
_C404: 18 - 2 + 21 x_17_1 <= 20
_C405: 18 - 3 + 21 x_17_2 <= 20
_C406: 18 - 4 + 21 x_17_3 <= 20
_C407: 18 - 5 + 21 x_17_4 <= 20
_C408: 18 - 6 + 21 x_17_5 <= 20
_C409: 18 - 7 + 21 x_17_6 <= 20
_C41: x_0_20 + x_10_20 + x_11_20 + x_12_20 + x_13_20 + x_14_20 + x_15_20
 + x_16_20 + x_17_20 + x_18_20 + x_19_20 + x_1_20 + x_20_20 + x_2_20 + x_3_20
 + x_4_20 + x_5_20 + x_6_20 + x_7_20 + x_8_20 + x_9_20 = 1
_C410: 18 - 8 + 21 x_17_7 <= 20
_C411: 18 - 9 + 21 x_17_8 <= 20
_C412: - 10 + 18 + 21 x_17_9 <= 20
_C413: - 11 + 18 + 21 x_17_10 <= 20
_C414: - 12 + 18 + 21 x_17_11 <= 20
_C415: - 13 + 18 + 21 x_17_12 <= 20
_C416: - 14 + 18 + 21 x_17_13 <= 20
_C417: - 15 + 18 + 21 x_17_14 <= 20
_C418: - 16 + 18 + 21 x_17_15 <= 20
_C419: - 17 + 18 + 21 x_17_16 <= 20
_C42: x_0_0 = 0
_C420: 18 - 19 + 21 x_17_18 <= 20
_C421: 18 - 20 + 21 x_17_19 <= 20
_C422: 18 - 21 + 21 x_17_20 <= 20
_C423: - 1 + 19 + 21 x_18_0 <= 20
_C424: 19 - 2 + 21 x_18_1 <= 20
_C425: 19 - 3 + 21 x_18_2 <= 20
_C426: 19 - 4 + 21 x_18_3 <= 20
_C427: 19 - 5 + 21 x_18_4 <= 20
_C428: 19 - 6 + 21 x_18_5 <= 20
_C429: 19 - 7 + 21 x_18_6 <= 20
_C43: x_1_1 = 0
_C430: 19 - 8 + 21 x_18_7 <= 20
_C431: 19 - 9 + 21 x_18_8 <= 20
_C432: - 10 + 19 + 21 x_18_9 <= 20
_C433: - 11 + 19 + 21 x_18_10 <= 20
_C434: - 12 + 19 + 21 x_18_11 <= 20
_C435: - 13 + 19 + 21 x_18_12 <= 20
_C436: - 14 + 19 + 21 x_18_13 <= 20
_C437: - 15 + 19 + 21 x_18_14 <= 20
_C438: - 16 + 19 + 21 x_18_15 <= 20
_C439: - 17 + 19 + 21 x_18_16 <= 20
_C44: x_2_2 = 0
_C440: - 18 + 19 + 21 x_18_17 <= 20
_C441: 19 - 20 + 21 x_18_19 <= 20
_C442: 19 - 21 + 21 x_18_20 <= 20
_C443: - 1 + 20 + 21 x_19_0 <= 20
_C444: - 2 + 20 + 21 x_19_1 <= 20
_C445: 20 - 3 + 21 x_19_2 <= 20
_C446: 20 - 4 + 21 x_19_3 <= 20
_C447: 20 - 5 + 21 x_19_4 <= 20
_C448: 20 - 6 + 21 x_19_5 <= 20
_C449: 20 - 7 + 21 x_19_6 <= 20
_C45: x_3_3 = 0
_C450: 20 - 8 + 21 x_19_7 <= 20
_C451: 20 - 9 + 21 x_19_8 <= 20
_C452: - 10 + 20 + 21 x_19_9 <= 20
_C453: - 11 + 20 + 21 x_19_10 <= 20
_C454: - 12 + 20 + 21 x_19_11 <= 20
_C455: - 13 + 20 + 21 x_19_12 <= 20
_C456: - 14 + 20 + 21 x_19_13 <= 20
_C457: - 15 + 20 + 21 x_19_14 <= 20
_C458: - 16 + 20 + 21 x_19_15 <= 20
_C459: - 17 + 20 + 21 x_19_16 <= 20
_C46: x_4_4 = 0
_C460: - 18 + 20 + 21 x_19_17 <= 20
_C461: - 19 + 20 + 21 x_19_18 <= 20
_C462: 20 - 21 + 21 x_19_20 <= 20
_C47: x_5_5 = 0
_C48: x_6_6 = 0
_C49: x_7_7 = 0
_C5: x_4_0 + x_4_1 + x_4_10 + x_4_11 + x_4_12 + x_4_13 + x_4_14 + x_4_15
 + x_4_16 + x_4_17 + x_4_18 + x_4_19 + x_4_2 + x_4_20 + x_4_3 + x_4_4 + x_4_5
 + x_4_6 + x_4_7 + x_4_8 + x_4_9 = 1
_C50: x_8_8 = 0
_C51: x_9_9 = 0
_C52: x_10_10 = 0
_C53: x_11_11 = 0
_C54: x_12_12 = 0
_C55: x_13_13 = 0
_C56: x_14_14 = 0
_C57: x_15_15 = 0
_C58: x_16_16 = 0
_C59: x_17_17 = 0
_C6: x_5_0 + x_5_1 + x_5_10 + x_5_11 + x_5_12 + x_5_13 + x_5_14 + x_5_15
 + x_5_16 + x_5_17 + x_5_18 + x_5_19 + x_5_2 + x_5_20 + x_5_3 + x_5_4 + x_5_5
 + x_5_6 + x_5_7 + x_5_8 + x_5_9 = 1
_C60: x_18_18 = 0
_C61: x_19_19 = 0
_C62: x_20_20 = 0
_C63: 1 - 2 + 21 x_0_1 <= 20
_C64: 1 - 3 + 21 x_0_2 <= 20
_C65: 1 - 4 + 21 x_0_3 <= 20
_C66: 1 - 5 + 21 x_0_4 <= 20
_C67: 1 - 6 + 21 x_0_5 <= 20
_C68: 1 - 7 + 21 x_0_6 <= 20
_C69: 1 - 8 + 21 x_0_7 <= 20
_C7: x_6_0 + x_6_1 + x_6_10 + x_6_11 + x_6_12 + x_6_13 + x_6_14 + x_6_15
 + x_6_16 + x_6_17 + x_6_18 + x_6_19 + x_6_2 + x_6_20 + x_6_3 + x_6_4 + x_6_5
 + x_6_6 + x_6_7 + x_6_8 + x_6_9 = 1
_C70: 1 - 9 + 21 x_0_8 <= 20
_C71: 1 - 10 + 21 x_0_9 <= 20
_C72: 1 - 11 + 21 x_0_10 <= 20
_C73: 1 - 12 + 21 x_0_11 <= 20
_C74: 1 - 13 + 21 x_0_12 <= 20
_C75: 1 - 14 + 21 x_0_13 <= 20
_C76: 1 - 15 + 21 x_0_14 <= 20
_C77: 1 - 16 + 21 x_0_15 <= 20
_C78: 1 - 17 + 21 x_0_16 <= 20
_C79: 1 - 18 + 21 x_0_17 <= 20
_C8: x_7_0 + x_7_1 + x_7_10 + x_7_11 + x_7_12 + x_7_13 + x_7_14 + x_7_15
 + x_7_16 + x_7_17 + x_7_18 + x_7_19 + x_7_2 + x_7_20 + x_7_3 + x_7_4 + x_7_5
 + x_7_6 + x_7_7 + x_7_8 + x_7_9 = 1
_C80: 1 - 19 + 21 x_0_18 <= 20
_C81: 1 - 20 + 21 x_0_19 <= 20
_C82: 1 - 21 + 21 x_0_20 <= 20
_C83: - 1 + 2 + 21 x_1_0 <= 20
_C84: 2 - 3 + 21 x_1_2 <= 20
_C85: 2 - 4 + 21 x_1_3 <= 20
_C86: 2 - 5 + 21 x_1_4 <= 20
_C87: 2 - 6 + 21 x_1_5 <= 20
_C88: 2 - 7 + 21 x_1_6 <= 20
_C89: 2 - 8 + 21 x_1_7 <= 20
_C9: x_8_0 + x_8_1 + x_8_10 + x_8_11 + x_8_12 + x_8_13 + x_8_14 + x_8_15
 + x_8_16 + x_8_17 + x_8_18 + x_8_19 + x_8_2 + x_8_20 + x_8_3 + x_8_4 + x_8_5
 + x_8_6 + x_8_7 + x_8_8 + x_8_9 = 1
_C90: 2 - 9 + 21 x_1_8 <= 20
_C91: - 10 + 2 + 21 x_1_9 <= 20
_C92: - 11 + 2 + 21 x_1_10 <= 20
_C93: - 12 + 2 + 21 x_1_11 <= 20
_C94: - 13 + 2 + 21 x_1_12 <= 20
_C95: - 14 + 2 + 21 x_1_13 <= 20
_C96: - 15 + 2 + 21 x_1_14 <= 20
_C97: - 16 + 2 + 21 x_1_15 <= 20
_C98: - 17 + 2 + 21 x_1_16 <= 20
_C99: - 18 + 2 + 21 x_1_17 <= 20
Bounds
 1 <= 1 <= 22
 1 <= 10 <= 22
 1 <= 11 <= 22
 1 <= 12 <= 22
 1 <= 13 <= 22
 1 <= 14 <= 22
 1 <= 15 <= 22
 1 <= 16 <= 22
 1 <= 17 <= 22
 1 <= 18 <= 22
 1 <= 19 <= 22
 1 <= 2 <= 22
 1 <= 20 <= 22
 1 <= 21 <= 22
 1 <= 3 <= 22
 1 <= 4 <= 22
 1 <= 5 <= 22
 1 <= 6 <= 22
 1 <= 7 <= 22
 1 <= 8 <= 22
 1 <= 9 <= 22
Generals
1
10
11
12
13
14
15
16
17
18
19
2
20
21
3
4
5
6
7
8
9
Binaries
x_0_0
x_0_1
x_0_10
x_0_11
x_0_12
x_0_13
x_0_14
x_0_15
x_0_16
x_0_17
x_0_18
x_0_19
x_0_2
x_0_20
x_0_3
x_0_4
x_0_5
x_0_6
x_0_7
x_0_8
x_0_9
x_10_0
x_10_1
x_10_10
x_10_11
x_10_12
x_10_13
x_10_14
x_10_15
x_10_16
x_10_17
x_10_18
x_10_19
x_10_2
x_10_20
x_10_3
x_10_4
x_10_5
x_10_6
x_10_7
x_10_8
x_10_9
x_11_0
x_11_1
x_11_10
x_11_11
x_11_12
x_11_13
x_11_14
x_11_15
x_11_16
x_11_17
x_11_18
x_11_19
x_11_2
x_11_20
x_11_3
x_11_4
x_11_5
x_11_6
x_11_7
x_11_8
x_11_9
x_12_0
x_12_1
x_12_10
x_12_11
x_12_12
x_12_13
x_12_14
x_12_15
x_12_16
x_12_17
x_12_18
x_12_19
x_12_2
x_12_20
x_12_3
x_12_4
x_12_5
x_12_6
x_12_7
x_12_8
x_12_9
x_13_0
x_13_1
x_13_10
x_13_11
x_13_12
x_13_13
x_13_14
x_13_15
x_13_16
x_13_17
x_13_18
x_13_19
x_13_2
x_13_20
x_13_3
x_13_4
x_13_5
x_13_6
x_13_7
x_13_8
x_13_9
x_14_0
x_14_1
x_14_10
x_14_11
x_14_12
x_14_13
x_14_14
x_14_15
x_14_16
x_14_17
x_14_18
x_14_19
x_14_2
x_14_20
x_14_3
x_14_4
x_14_5
x_14_6
x_14_7
x_14_8
x_14_9
x_15_0
x_15_1
x_15_10
x_15_11
x_15_12
x_15_13
x_15_14
x_15_15
x_15_16
x_15_17
x_15_18
x_15_19
x_15_2
x_15_20
x_15_3
x_15_4
x_15_5
x_15_6
x_15_7
x_15_8
x_15_9
x_16_0
x_16_1
x_16_10
x_16_11
x_16_12
x_16_13
x_16_14
x_16_15
x_16_16
x_16_17
x_16_18
x_16_19
x_16_2
x_16_20
x_16_3
x_16_4
x_16_5
x_16_6
x_16_7
x_16_8
x_16_9
x_17_0
x_17_1
x_17_10
x_17_11
x_17_12
x_17_13
x_17_14
x_17_15
x_17_16
x_17_17
x_17_18
x_17_19
x_17_2
x_17_20
x_17_3
x_17_4
x_17_5
x_17_6
x_17_7
x_17_8
x_17_9
x_18_0
x_18_1
x_18_10
x_18_11
x_18_12
x_18_13
x_18_14
x_18_15
x_18_16
x_18_17
x_18_18
x_18_19
x_18_2
x_18_20
x_18_3
x_18_4
x_18_5
x_18_6
x_18_7
x_18_8
x_18_9
x_19_0
x_19_1
x_19_10
x_19_11
x_19_12
x_19_13
x_19_14
x_19_15
x_19_16
x_19_17
x_19_18
x_19_19
x_19_2
x_19_20
x_19_3
x_19_4
x_19_5
x_19_6
x_19_7
x_19_8
x_19_9
x_1_0
x_1_1
x_1_10
x_1_11
x_1_12
x_1_13
x_1_14
x_1_15
x_1_16
x_1_17
x_1_18
x_1_19
x_1_2
x_1_20
x_1_3
x_1_4
x_1_5
x_1_6
x_1_7
x_1_8
x_1_9
x_20_0
x_20_1
x_20_10
x_20_11
x_20_12
x_20_13
x_20_14
x_20_15
x_20_16
x_20_17
x_20_18
x_20_19
x_20_2
x_20_20
x_20_3
x_20_4
x_20_5
x_20_6
x_20_7
x_20_8
x_20_9
x_2_0
x_2_1
x_2_10
x_2_11
x_2_12
x_2_13
x_2_14
x_2_15
x_2_16
x_2_17
x_2_18
x_2_19
x_2_2
x_2_20
x_2_3
x_2_4
x_2_5
x_2_6
x_2_7
x_2_8
x_2_9
x_3_0
x_3_1
x_3_10
x_3_11
x_3_12
x_3_13
x_3_14
x_3_15
x_3_16
x_3_17
x_3_18
x_3_19
x_3_2
x_3_20
x_3_3
x_3_4
x_3_5
x_3_6
x_3_7
x_3_8
x_3_9
x_4_0
x_4_1
x_4_10
x_4_11
x_4_12
x_4_13
x_4_14
x_4_15
x_4_16
x_4_17
x_4_18
x_4_19
x_4_2
x_4_20
x_4_3
x_4_4
x_4_5
x_4_6
x_4_7
x_4_8
x_4_9
x_5_0
x_5_1
x_5_10
x_5_11
x_5_12
x_5_13
x_5_14
x_5_15
x_5_16
x_5_17
x_5_18
x_5_19
x_5_2
x_5_20
x_5_3
x_5_4
x_5_5
x_5_6
x_5_7
x_5_8
x_5_9
x_6_0
x_6_1
x_6_10
x_6_11
x_6_12
x_6_13
x_6_14
x_6_15
x_6_16
x_6_17
x_6_18
x_6_19
x_6_2
x_6_20
x_6_3
x_6_4
x_6_5
x_6_6
x_6_7
x_6_8
x_6_9
x_7_0
x_7_1
x_7_10
x_7_11
x_7_12
x_7_13
x_7_14
x_7_15
x_7_16
x_7_17
x_7_18
x_7_19
x_7_2
x_7_20
x_7_3
x_7_4
x_7_5
x_7_6
x_7_7
x_7_8
x_7_9
x_8_0
x_8_1
x_8_10
x_8_11
x_8_12
x_8_13
x_8_14
x_8_15
x_8_16
x_8_17
x_8_18
x_8_19
x_8_2
x_8_20
x_8_3
x_8_4
x_8_5
x_8_6
x_8_7
x_8_8
x_8_9
x_9_0
x_9_1
x_9_10
x_9_11
x_9_12
x_9_13
x_9_14
x_9_15
x_9_16
x_9_17
x_9_18
x_9_19
x_9_2
x_9_20
x_9_3
x_9_4
x_9_5
x_9_6
x_9_7
x_9_8
x_9_9
End
